c n orig vars 88
p cnf 198 527
138 0
-89 90 0
-89 169 0
89 -90 -169 0
90 -75 0
90 -74 0
90 -73 0
90 -110 0
90 -150 0
90 -140 0
90 -71 0
-90 75 74 73 110 150 140 71 0
91 -52 0
91 -51 0
91 -54 0
91 -53 0
91 -50 0
91 -49 0
91 -41 0
91 -42 0
91 -43 0
91 -44 0
91 -45 0
91 -46 0
-91 52 51 54 53 50 49 41 42 43 44 45 46 0
92 -77 0
92 -65 0
92 -82 0
92 -47 0
92 -75 0
92 -123 0
92 -197 0
-92 77 65 82 47 75 123 197 0
-93 194 0
-93 119 0
-93 127 0
93 -194 -119 -127 0
94 -55 0
94 -30 0
94 -58 0
94 -96 0
94 -89 0
94 -114 0
-94 55 30 58 96 89 114 0
95 -3 0
95 -65 0
95 -66 0
95 -63 0
95 -118 0
95 -110 0
-95 3 65 66 63 118 110 0
-96 179 0
-96 57 0
96 -179 -57 0
97 -61 0
97 -66 0
97 -1 0
97 -48 0
97 -74 0
97 -100 0
-97 61 66 1 48 74 100 0
-98 193 0
-98 186 0
98 -193 -186 0
-99 82 0
99 -82 0
-100 99 0
-100 33 0
100 -99 -33 0
-101 182 0
-101 57 0
101 -182 -57 0
-102 136 0
-102 29 0
102 -136 -29 0
103 -38 0
103 -37 0
103 -102 0
103 -101 0
-103 38 37 102 101 0
-104 190 0
-104 147 0
104 -190 -147 0
-105 162 0
-105 161 0
105 -162 -161 0
-106 130 0
-106 29 0
106 -130 -29 0
107 -32 0
107 -35 0
107 -106 0
107 -198 0
-107 32 35 106 198 0
108 -87 0
108 -85 0
-108 87 85 0
109 -80 0
109 -9 0
-109 80 9 0
-110 194 0
-110 193 0
-110 119 0
-110 127 0
110 -194 -193 -119 -127 0
-111 194 0
-111 193 0
-111 121 0
-111 126 0
111 -194 -193 -121 -126 0
-112 76 0
112 -76 0
-113 193 0
-113 112 0
113 -193 -112 0
-114 117 0
-114 116 0
114 -117 -116 0
-115 194 0
-115 193 0
-115 109 0
-115 108 0
115 -194 -193 -109 -108 0
116 -75 0
116 -74 0
116 -73 0
116 -72 0
116 -149 0
116 -150 0
116 -151 0
116 -152 0
116 -71 0
116 -70 0
-116 75 74 73 72 149 150 151 152 71 70 0
-117 4 0
117 -4 0
-118 122 0
-118 2 0
118 -122 -2 0
119 -83 0
119 -7 0
-119 83 7 0
-120 1 0
120 -1 0
121 -8 0
121 -7 0
-121 8 7 0
-122 6 0
122 -6 0
-123 120 0
-123 5 0
123 -120 -5 0
-124 178 0
-124 175 0
124 -178 -175 0
-125 160 0
-125 159 0
125 -160 -159 0
126 -84 0
126 -85 0
-126 84 85 0
127 -79 0
127 -85 0
-127 79 85 0
128 -22 0
128 -129 0
-128 22 129 0
-129 194 0
-129 193 0
-129 137 0
-129 186 0
129 -194 -193 -137 -186 0
130 -26 0
130 -129 0
-130 26 129 0
131 -21 0
131 -27 0
-131 21 27 0
132 -52 0
132 -51 0
132 -20 0
132 -17 0
132 -49 0
132 -41 0
132 -44 0
132 -46 0
-132 52 51 20 17 49 41 44 46 0
133 -18 0
133 -185 0
-133 18 185 0
134 -15 0
134 -98 0
-134 15 98 0
135 -16 0
135 -51 0
135 -53 0
135 -17 0
135 -41 0
135 -43 0
135 -45 0
135 -46 0
-135 16 51 53 17 41 43 45 46 0
136 -13 0
136 -185 0
-136 13 185 0
137 -11 0
137 -23 0
-137 11 23 0
138 -36 0
138 -105 0
138 -104 0
-138 36 105 104 0
139 -3 0
139 -65 0
139 -66 0
139 -63 0
139 -118 0
-139 3 65 66 63 118 0
-140 139 0
-140 141 0
140 -139 -141 0
141 -6 0
141 -77 0
141 -61 0
141 -62 0
141 -192 0
141 -111 0
141 -59 0
-141 6 77 61 62 192 111 59 0
142 -3 0
142 -60 0
142 -65 0
142 -66 0
142 -63 0
142 -118 0
-142 3 60 65 66 63 118 0
143 -64 0
143 -38 0
143 -37 0
143 -102 0
143 -101 0
-143 64 38 37 102 101 0
-144 143 0
-144 148 0
144 -143 -148 0
145 -78 0
145 -75 0
145 -74 0
145 -73 0
145 -110 0
145 -150 0
145 -157 0
145 -71 0
-145 78 75 74 73 110 150 157 71 0
-146 145 0
-146 153 0
146 -145 -153 0
147 -60 0
147 -78 0
147 -69 0
147 -64 0
147 -67 0
147 -68 0
147 -115 0
147 -173 0
147 -174 0
147 -171 0
147 -59 0
147 -56 0
-147 60 78 69 64 67 68 115 173 174 171 59 56 0
148 -68 0
148 -32 0
148 -35 0
148 -106 0
148 -198 0
-148 68 32 35 106 198 0
-149 134 0
-149 39 0
149 -134 -39 0
-150 133 0
-150 25 0
150 -133 -25 0
-151 193 0
-151 168 0
151 -193 -168 0
-152 177 0
-152 95 0
152 -177 -95 0
153 -72 0
153 -69 0
153 -113 0
153 -149 0
153 -70 0
-153 72 69 113 149 70 0
-154 117 0
-154 155 0
154 -117 -155 0
155 -78 0
155 -75 0
155 -74 0
155 -73 0
155 -72 0
155 -69 0
155 -149 0
155 -150 0
155 -156 0
155 -151 0
155 -71 0
155 -70 0
-155 78 75 74 73 72 69 149 150 156 151 71 70 0
-156 158 0
-156 167 0
156 -158 -167 0
-157 158 0
-157 142 0
157 -158 -142 0
158 -6 0
158 -77 0
158 -61 0
158 -62 0
158 -192 0
158 -111 0
158 -59 0
158 -56 0
-158 6 77 61 62 192 111 59 56 0
159 -78 0
159 -75 0
159 -74 0
159 -73 0
159 -110 0
159 -187 0
159 -157 0
159 -12 0
-159 78 75 74 73 110 187 157 12 0
160 -72 0
160 -69 0
160 -113 0
160 -181 0
160 -19 0
-160 72 69 113 181 19 0
161 -60 0
161 -78 0
161 -69 0
161 -67 0
161 -115 0
161 -144 0
161 -173 0
161 -59 0
161 -56 0
-161 60 78 69 67 115 144 173 59 56 0
162 -64 0
162 -68 0
162 -55 0
162 -30 0
162 -58 0
162 -96 0
162 -154 0
162 -146 0
-162 64 68 55 30 58 96 154 146 0
163 -75 0
163 -74 0
163 -73 0
163 -72 0
163 -149 0
163 -150 0
163 -96 0
163 -151 0
163 -152 0
163 -71 0
163 -70 0
-163 75 74 73 72 149 150 96 151 152 71 70 0
-164 163 0
-164 117 0
164 -163 -117 0
-165 91 0
-165 57 0
165 -91 -57 0
166 -38 0
166 -55 0
166 -37 0
166 -30 0
166 -58 0
166 -102 0
166 -164 0
166 -165 0
166 -176 0
-166 38 55 37 30 58 102 164 165 176 0
167 -3 0
167 -60 0
167 -65 0
167 -66 0
167 -63 0
167 -118 0
167 -110 0
-167 3 60 65 66 63 118 110 0
168 -76 0
168 -93 0
-168 76 93 0
169 -72 0
169 -113 0
169 -149 0
169 -70 0
-169 72 113 149 70 0
170 -75 0
170 -74 0
170 -73 0
170 -110 0
170 -150 0
170 -172 0
170 -71 0
-170 75 74 73 110 150 172 71 0
-171 107 0
-171 166 0
171 -107 -166 0
-172 177 0
-172 139 0
172 -177 -139 0
-173 92 0
-173 97 0
173 -92 -97 0
-174 103 0
-174 94 0
174 -103 -94 0
-175 58 0
175 -58 0
-176 169 0
-176 170 0
176 -169 -170 0
177 -6 0
177 -77 0
177 -61 0
177 -62 0
177 -192 0
177 -111 0
-177 6 77 61 62 192 111 0
178 -78 0
178 -75 0
178 -74 0
178 -73 0
178 -72 0
178 -69 0
178 -181 0
178 -187 0
178 -156 0
178 -151 0
178 -12 0
178 -19 0
-178 78 75 74 73 72 69 181 187 156 151 12 19 0
179 -51 0
179 -53 0
179 -50 0
179 -49 0
179 -41 0
179 -42 0
179 -44 0
179 -45 0
-179 51 53 50 49 41 42 44 45 0
180 -40 0
180 -188 0
-180 40 188 0
-181 180 0
-181 39 0
181 -180 -39 0
182 -52 0
182 -51 0
182 -54 0
182 -42 0
182 -43 0
182 -44 0
182 -45 0
182 -46 0
-182 52 51 54 42 43 44 45 46 0
183 -28 0
183 -27 0
-183 28 27 0
184 -24 0
184 -23 0
-184 24 23 0
-185 194 0
-185 193 0
-185 184 0
-185 183 0
185 -194 -193 -184 -183 0
186 -14 0
186 -27 0
-186 14 27 0
-187 128 0
-187 25 0
187 -128 -25 0
-188 193 0
-188 131 0
188 -193 -131 0
-189 135 0
-189 57 0
189 -135 -57 0
190 -31 0
190 -37 0
190 -30 0
190 -35 0
190 -4 0
190 -189 0
190 -124 0
190 -125 0
-190 31 37 30 35 4 189 124 125 0
-191 3 0
191 -3 0
-192 191 0
-192 34 0
192 -191 -34 0
-193 88 0
193 -88 0
-194 81 0
194 -81 0
195 -86 0
195 -85 0
-195 86 85 0
196 -10 0
196 -9 0
-196 10 9 0
-197 196 0
-197 195 0
-197 194 0
-197 193 0
197 -196 -195 -194 -193 0
-198 132 0
-198 57 0
198 -132 -57 0
